
  22   10
  10   10   10   10   10   10   10   10   10   10

   0   0   0   0   0   0   0   0   0   0   0   8 2 4 6 7 8 11 12 21 
  10  10  10  10  10  10  10  10  10  10  10   6 20 19 17 15 14 3 
   8  10  10  10  10  10  10  10  10  10  10   2 18 5 
   5  10  10  10  10  10  10  10  10  10  10   2 14 10 
   9  10  10  10  10  10  10  10  10  10  10   1 9 
   1  10  10  10  10  10  10  10  10  10  10   2 17 16 
   8  10  10  10  10  10  10  10  10  10  10   2 16 15 
   2  10  10  10  10  10  10  10  10  10  10   2 14 13 
   4  10  10  10  10  10  10  10  10  10  10   1 10 
   8  10  10  10  10  10  10  10  10  10  10   1 13 
   6  10  10  10  10  10  10  10  10  10  10   1 15 
   2  10  10  10  10  10  10  10  10  10  10   1 14 
   2  10  10  10  10  10  10  10  10  10  10   1 22
   5  10  10  10  10  10  10  10  10  10  10   1 22
   2  10  10  10  10  10  10  10  10  10  10   1 22
   4  10  10  10  10  10  10  10  10  10  10   1 22
   5  10  10  10  10  10  10  10  10  10  10   1 22
   3  10  10  10  10  10  10  10  10  10  10   1 22
   8  10  10  10  10  10  10  10  10  10  10   1 22
   3  10  10  10  10  10  10  10  10  10  10   1 22
   8  10  10  10  10  10  10  10  10  10  10   1 22
   0   0   0   0   0   0   0   0   0   0   0   0 
